NAME: rand_1/map3_180
TYPE: TSP
COMMENT: autogenerated using a wonderful map creator
DIMENSION: 210
EDGE_WEIGHT_TYPE: EUC_2D
NODE_COORD_SECTION
1 3.0 5.0
2 44.0 57.0
3 58.0 22.0
4 44.0 59.0
5 9.0 57.0
6 46.0 61.0
7 6.0 2.0
8 61.0 22.0
9 60.0 23.0
10 13.0 60.0
11 1.0 1.0
12 12.0 60.0
13 1.0 5.0
14 16.0 62.0
15 10.0 59.0
16 59.0 24.0
17 41.0 59.0
18 4.0 1.0
19 2.0 1.0
20 4.0 4.0
21 6.0 3.0
22 15.0 62.0
23 6.0 7.0
24 3.0 7.0
25 40.0 60.0
26 47.0 61.0
27 42.0 58.0
28 63.0 23.0
29 15.0 61.0
30 41.0 60.0
31 63.0 21.0
32 10.0 60.0
33 59.0 18.0
34 14.0 58.0
35 14.0 63.0
36 62.0 20.0
37 41.0 58.0
38 61.0 20.0
39 43.0 58.0
40 13.0 58.0
41 4.0 5.0
42 44.0 63.0
43 15.0 58.0
44 4.0 2.0
45 59.0 20.0
46 4.0 7.0
47 12.0 58.0
48 57.0 23.0
49 59.0 22.0
50 41.0 62.0
51 59.0 23.0
52 2.0 2.0
53 7.0 3.0
54 47.0 60.0
55 42.0 63.0
56 10.0 57.0
57 46.0 58.0
58 59.0 17.0
59 7.0 2.0
60 11.0 61.0
61 11.0 51.0
62 25.0 50.0
63 63.0 34.0
64 33.0 63.0
65 34.0 28.0
66 36.0 25.0
67 37.0 33.0
68 17.0 30.0
69 4.0 30.0
70 46.0 20.0
71 35.0 17.0
72 33.0 29.0
73 44.0 29.0
74 62.0 10.0
75 52.0 51.0
76 62.0 28.0
77 25.0 43.0
78 27.0 6.0
79 57.0 41.0
80 11.0 44.0
81 62.0 37.0
82 36.0 18.0
83 17.0 60.0
84 22.0 19.0
85 47.0 27.0
86 25.0 61.0
87 3.0 42.0
88 49.0 9.0
89 52.0 26.0
90 21.0 57.0
91 53.0 55.0
92 52.0 35.0
93 13.0 28.0
94 41.0 44.0
95 29.0 27.0
96 39.0 37.0
97 2.0 52.0
98 49.0 39.0
99 41.0 1.0
100 30.0 13.0
101 26.0 55.0
102 3.0 44.0
103 43.0 25.0
104 13.0 21.0
105 53.0 11.0
106 19.0 43.0
107 2.0 36.0
108 25.0 38.0
109 19.0 61.0
110 6.0 27.0
111 6.0 36.0
112 52.0 3.0
113 21.0 34.0
114 20.0 44.0
115 45.0 46.0
116 41.0 39.0
117 25.0 22.0
118 31.0 1.0
119 61.0 51.0
120 31.0 10.0
121 20.0 19.0
122 29.0 31.0
123 28.0 11.0
124 7.0 46.0
125 1.0 60.0
126 61.0 26.0
127 15.0 4.0
128 21.0 54.0
129 27.0 33.0
130 22.0 55.0
131 47.0 54.0
132 45.0 2.0
133 44.0 37.0
134 58.0 60.0
135 46.0 49.0
136 48.0 46.0
137 28.0 25.0
138 36.0 38.0
139 18.0 2.0
140 21.0 53.0
141 31.0 60.0
142 42.0 42.0
143 51.0 38.0
144 11.0 36.0
145 41.0 46.0
146 30.0 58.0
147 31.0 23.0
148 22.0 20.0
149 26.0 36.0
150 6.0 33.0
151 21.0 31.0
152 6.0 42.0
153 23.0 37.0
154 18.0 50.0
155 21.0 49.0
156 45.0 34.0
157 34.0 34.0
158 59.0 33.0
159 25.0 10.0
160 62.0 59.0
161 10.0 21.0
162 53.0 1.0
163 28.0 45.0
164 38.0 22.0
165 17.0 54.0
166 23.0 21.0
167 61.0 5.0
168 42.0 1.0
169 58.0 27.0
170 45.0 27.0
171 44.0 7.0
172 42.0 10.0
173 55.0 37.0
174 13.0 4.0
175 27.0 39.0
176 9.0 25.0
177 11.0 22.0
178 63.0 5.0
179 2.0 19.0
180 5.0 45.0
181 63.0 14.0
182 29.0 12.0
183 23.0 60.0
184 23.0 5.0
185 31.0 18.0
186 57.0 37.0
187 9.0 52.0
188 53.0 15.0
189 44.0 46.0
190 18.0 36.0
191 21.0 35.0
192 27.0 14.0
193 55.0 39.0
194 5.0 20.0
195 39.0 52.0
196 25.0 14.0
197 63.0 7.0
198 5.0 47.0
199 33.0 39.0
200 26.0 33.0
201 53.0 17.0
202 47.0 10.0
203 19.0 12.0
204 56.0 31.0
205 44.0 11.0
206 22.0 38.0
207 47.0 37.0
208 49.0 10.0
209 21.0 3.0
210 35.0 20.0
211 59.0 51.0
212 35.0 29.0
213 15.0 26.0
214 5.0 58.0
215 41.0 45.0
216 38.0 28.0
217 24.0 38.0
218 53.0 19.0
219 1.0 45.0
220 47.0 21.0
221 17.0 17.0
222 19.0 14.0
223 20.0 43.0
224 30.0 23.0
225 36.0 39.0
226 31.0 52.0
227 14.0 45.0
228 22.0 58.0
229 23.0 57.0
230 23.0 2.0
231 4.0 53.0
232 58.0 54.0
233 59.0 53.0
234 47.0 14.0
235 27.0 11.0
236 62.0 42.0
237 28.0 28.0
238 17.0 37.0
239 26.0 3.0
240 44.0 27.0
START_DEPOT_SECTION
1
2
3
4
5
6
7
8
9
10
11
12
13
14
15
16
17
18
19
20
21
22
23
24
25
26
27
28
29
30
-1
END_DEPOT_SECTION
31
32
33
34
35
36
37
38
39
40
41
42
43
44
45
46
47
48
49
50
51
52
53
54
55
56
57
58
59
60
-1
EOF
